hw6-Branch&Bound/hw6_1.out
:     x    y    :=
1 1    5   1
1 2   10   1
1 3   15   1
2 1    5   1
2 2   10   1
2 3   15   1
3 1    5   1
3 2   10   1
3 3   15   1
4 1    5   1
4 2   10   1
4 3   15   1
5 1    5   1
5 2   10   1
5 3   15   1
;

Cost = -4330.5

